2 54

100 7538
99 7585
98 7676
97 7699
96 7711
95 7724
94 7738
93 7752
92 7760
91 7768
90 7779
89 7789
88 7800
87 7804
86 7814
85 7826
84 7842
83 7844
82 7847
81 7852
80 7860
79 7863
78 7872
77 7873
76 7882
75 7884
74 7893
73 7897
72 7905
71 7912
70 7922
69 7929
68 7942
67 7944
66 7952
64 7958
63 7959
62 7963
61 7966
60 7970
59 7972
58 7977
57 7979
56 7983
55 7985
54 7988
53 7989
52 7990
50 7994
49 7997
46 8000
45 8001
44 8004
40 8008
